(set-logic ALL)
(declare-const BAV1 Bool)
(declare-const GEN1 Int)
(declare-fun a () Int)
(declare-fun b () Real)
(assert (= (/ GEN1 (to_real a)) b))
(assert (= BAV1 (= (/ GEN1 (to_real a)) b)))
(check-sat)
(get-model)